120 150

50
47
54
45
51
40
40
40
56
53
41
48
44
59
45
46
56
44
50
51
44
55
60
47
43
50
54
46
40
56
55
43
53
49
48
50
57
43
57
45
48
46
40
57
54
46
50
45
54
51
40
40
40
57
42
51
51
46
53
46
59
45
40
54
57
50
43
52
46
52
54
43
54
51
45
40
40
40
44
60
46
43
51
56
60
41
49
51
55
44
59
46
45
54
40
57
48
45
46
40
40
52
52
46
46
45
60
57
48
51
51
46
53
51
53
57
41
54
55
54